1
83
112
109
6
10
98
42
54
106
53
33
23
103
97
108
89
87
64
21
12
57
3
9
2
22
78
81
16
5
84
116
99
95
67
88
60
39
79
27
69
28
107
62
35
37
26
66
122
17
74
20
30
25
96
55
32
111
13
85
31
117
4
18
77
91
8
100
61
29
19
75
36
15
128
101
92
63
48
124
59
41
51
7
121
80
34
38
94
115
65
40
52
127
105
24
102
114
93
113
50
72
90
76
47
49
70
44
118
71
46
119
14
68
125
104
73
120
123
43
11
86
56
58
45
110
126
82
1
